
Gurobi 10.0.0 (win64) logging started Thu Jun 13 14:17:20 2024

Set parameter LogFile to value "C:\Users\ealvarezq\Documents\GitHub\Comillas\Models\JointResearch\05. Models\06.Benchmarking\K.Investments_per_hour\RTS24_mod2_ByStages_nc30/openStarNet_RTS24_mod2_ByStages_nc30.log"
Set parameter Method to value 2
Set parameter MIPFocus to value 1
Set parameter Presolve to value 2
Set parameter RINS to value 100
Set parameter MIPGap to value 0.01
Set parameter Threads to value 9
Set parameter TimeLimit to value 259200
Set parameter IterationLimit to value 760000000
Gurobi Optimizer version 10.0.0 build v10.0.0rc2 (win64)

CPU model: Intel(R) Core(TM) i7-8700 CPU @ 3.20GHz, instruction set [SSE2|AVX|AVX2]
Thread count: 6 physical cores, 12 logical processors, using up to 9 threads

Optimize a model with 10653 rows, 7197 columns and 29006 nonzeros
Model fingerprint: 0xdee8cf44
Variable types: 7176 continuous, 21 integer (21 binary)
Coefficient statistics:
  Matrix range     [1e-03, 3e+03]
  Objective range  [1e+00, 1e+00]
  Bounds range     [5e-05, 2e+00]
  RHS range        [5e-05, 2e+00]
Presolve removed 6342 rows and 3646 columns
Presolve time: 0.04s
Presolved: 4311 rows, 3551 columns, 15548 nonzeros
Variable types: 3530 continuous, 21 integer (21 binary)
Found heuristic solution: objective 93.3947638
Root relaxation presolve removed 1 rows and 1 columns
Root relaxation presolved: 4310 rows, 3550 columns, 15546 nonzeros

Root barrier log...

Ordering time: 0.00s

Barrier statistics:
 Dense cols : 21
 AA' NZ     : 2.890e+04
 Factor NZ  : 8.300e+04 (roughly 4 MB of memory)
 Factor Ops : 1.701e+06 (less than 1 second per iteration)
 Threads    : 9

                  Objective                Residual
Iter       Primal          Dual         Primal    Dual     Compl     Time
   0   2.71816465e+06 -1.88852173e+08  2.23e+01 8.92e+02  1.58e+05     0s
   1   8.79508606e+05 -1.03220260e+08  7.18e+00 1.76e+02  4.67e+04     0s
   2   6.22165846e+04 -6.13228890e+07  5.30e-01 3.56e+01  8.26e+03     0s
   3   1.76290734e+04 -8.78385782e+06  9.25e-02 6.72e-10  1.01e+03     0s
   4   1.07394169e+04 -6.64354814e+05  5.62e-03 1.13e-10  6.87e+01     0s
   5   7.59282113e+03 -8.77963674e+04  5.85e-13 6.18e-10  9.49e+00     0s
   6   2.58267328e+03 -1.65375470e+04  4.62e-13 1.06e-10  1.90e+00     0s
   7   5.45592472e+02 -3.88819754e+03  1.77e-13 2.14e-11  4.41e-01     0s
   8   2.00325599e+02 -8.62506142e+02  1.57e-13 4.77e-12  1.06e-01     0s
   9   1.24748181e+02 -2.37658867e+02  1.34e-13 9.58e-12  3.60e-02     0s
  10   8.52891565e+01 -3.32380113e+01  1.97e-13 7.81e-12  1.18e-02     0s
  11   6.29474337e+01  1.24746132e+01  1.82e-13 7.00e-12  5.02e-03     0s
  12   5.36648277e+01  3.18591154e+01  8.15e-13 1.91e-12  2.17e-03     0s
  13   4.84054356e+01  3.67568736e+01  2.03e-12 1.98e-12  1.16e-03     0s
  14   4.56655802e+01  4.12975318e+01  2.54e-12 2.72e-12  4.35e-04     0s
  15   4.45039191e+01  4.23102016e+01  9.43e-12 7.40e-12  2.18e-04     0s
  16   4.39346571e+01  4.30688542e+01  9.65e-12 3.71e-12  8.61e-05     0s
  17   4.36121870e+01  4.32852097e+01  1.60e-11 1.29e-11  3.25e-05     0s
  18   4.34645807e+01  4.33528787e+01  1.01e-10 2.64e-12  1.11e-05     0s
  19   4.34190410e+01  4.33768894e+01  6.55e-11 1.73e-12  4.19e-06     0s
  20   4.34022686e+01  4.33862089e+01  1.21e-10 2.55e-12  1.60e-06     0s
  21   4.33930857e+01  4.33881064e+01  1.48e-09 7.73e-12  4.95e-07     0s
  22   4.33902867e+01  4.33891565e+01  2.11e-09 4.10e-12  1.12e-07     0s
  23   4.33896160e+01  4.33894302e+01  1.16e-09 3.62e-12  1.85e-08     0s
  24   4.33895371e+01  4.33895033e+01  1.19e-09 4.34e-12  3.36e-09     0s
  25   4.33895055e+01  4.33895040e+01  3.98e-09 3.56e-12  1.50e-10     0s
  26   4.33895053e+01  4.33895053e+01  1.43e-09 2.91e-12  3.03e-13     0s

Barrier solved model in 26 iterations and 0.17 seconds (0.16 work units)
Optimal objective 4.33895053e+01


Root relaxation: objective 4.338951e+01, 538 iterations, 0.11 seconds (0.08 work units)

    Nodes    |    Current Node    |     Objective Bounds      |     Work
 Expl Unexpl |  Obj  Depth IntInf | Incumbent    BestBd   Gap | It/Node Time

     0     0   43.38951    0   17   93.39476   43.38951  53.5%     -    0s
     0     0   44.87629    0   14   93.39476   44.87629  51.9%     -    0s
H    0     0                      89.3860551   44.87629  49.8%     -    0s
     0     0   44.90367    0   15   89.38606   44.90367  49.8%     -    0s
H    0     0                      81.6404612   44.90367  45.0%     -    0s
     0     0   44.90367    0   15   81.64046   44.90367  45.0%     -    0s
     0     0   45.11476    0   14   81.64046   45.11476  44.7%     -    0s
     0     0   45.19346    0   15   81.64046   45.19346  44.6%     -    0s
     0     0   45.25666    0   16   81.64046   45.25666  44.6%     -    0s
     0     0   45.27186    0   16   81.64046   45.27186  44.5%     -    0s
H    0     0                      77.7082608   45.27658  41.7%     -    0s
     0     0   45.27658    0   16   77.70826   45.27658  41.7%     -    0s
     0     0   45.27678    0   16   77.70826   45.27678  41.7%     -    0s
     0     0   45.41830    0   13   77.70826   45.41830  41.6%     -    0s
H    0     0                      71.6145232   45.42501  36.6%     -    1s
     0     0   45.42501    0   14   71.61452   45.42501  36.6%     -    1s
     0     0   45.56223    0   15   71.61452   45.56223  36.4%     -    1s
     0     0   46.50982    0   11   71.61452   46.50982  35.1%     -    1s
     0     0   46.82579    0   11   71.61452   46.82579  34.6%     -    1s
     0     0   47.24478    0   10   71.61452   47.24478  34.0%     -    1s
     0     0   47.24478    0   11   71.61452   47.24478  34.0%     -    1s
     0     0   47.49584    0   11   71.61452   47.49584  33.7%     -    1s
H    0     0                      62.8379439   47.49584  24.4%     -    3s
     0     2   47.49584    0   11   62.83794   47.49584  24.4%     -    3s
H   56    59                      62.7664184   47.49584  24.3%   238    3s
H   99    84                      62.6420765   47.49584  24.2%   205    5s
H  100    84                      62.6204117   47.49584  24.2%   206    5s
   598   200   61.09339   11   10   62.62041   48.42871  22.7%   151   10s
  1491   287     cutoff   10        62.62041   57.60257  8.01%   114   16s
  1993   278     cutoff   11        62.62041   58.61983  6.39%   105   20s
  2199   269     cutoff   20        62.62041   58.85642  6.01%   102   25s

Cutting planes:
  Gomory: 1
  Implied bound: 30
  MIR: 211
  Relax-and-lift: 12

Explored 3277 nodes (284879 simplex iterations) in 27.11 seconds (33.65 work units)
Thread count was 9 (of 12 available processors)

Solution count 9: 62.6204 62.6421 62.7664 ... 93.3948

Optimal solution found (tolerance 1.00e-02)
Best objective 6.262041169173e+01, best bound 6.262041169173e+01, gap 0.0000%

Gurobi 10.0.0 (win64) logging started Thu Jun 13 14:17:48 2024

Set parameter LogFile to value "C:\Users\ealvarezq\Documents\GitHub\Comillas\Models\JointResearch\05. Models\06.Benchmarking\K.Investments_per_hour\RTS24_mod2_ByStages_nc30/openStarNet_RTS24_mod2_ByStages_nc30.log"
Set parameter Method to value 2
Set parameter MIPFocus to value 1
Set parameter Presolve to value 2
Set parameter RINS to value 100
Set parameter MIPGap to value 0.01
Set parameter Threads to value 9
Set parameter TimeLimit to value 259200
Set parameter IterationLimit to value 760000000
Gurobi Optimizer version 10.0.0 build v10.0.0rc2 (win64)

CPU model: Intel(R) Core(TM) i7-8700 CPU @ 3.20GHz, instruction set [SSE2|AVX|AVX2]
Thread count: 6 physical cores, 12 logical processors, using up to 9 threads

Optimize a model with 10653 rows, 7176 columns and 26465 nonzeros
Model fingerprint: 0xe9a67f45
Coefficient statistics:
  Matrix range     [1e-03, 3e+03]
  Objective range  [1e+00, 1e+00]
  Bounds range     [5e-05, 2e+00]
  RHS range        [5e-05, 3e+01]
Presolve removed 8989 rows and 4164 columns
Presolve time: 0.01s
Presolved: 1664 rows, 3059 columns, 7514 nonzeros

Ordering time: 0.00s

Barrier statistics:
 AA' NZ     : 4.267e+03
 Factor NZ  : 1.607e+04 (roughly 2 MB of memory)
 Factor Ops : 2.355e+05 (less than 1 second per iteration)
 Threads    : 1

                  Objective                Residual
Iter       Primal          Dual         Primal    Dual     Compl     Time
   0   5.83366510e+06 -3.88551091e+07  3.30e+01 6.63e+03  2.35e+05     0s
   1   3.43128338e+05 -3.32779736e+07  1.94e+00 4.37e-11  1.88e+04     0s
   2   5.84277003e+04 -1.22959122e+07  3.51e-01 3.06e-10  3.71e+03     0s
   3   2.09564961e+04 -3.45063502e+06  4.09e-02 9.09e-11  7.28e+02     0s
   4   1.41499179e+04 -3.70011364e+05  1.04e-03 4.37e-11  7.27e+01     0s
   5   6.95998799e+03 -8.04305435e+04  2.74e-07 1.09e-11  1.64e+01     0s
   6   2.10371938e+03 -1.65110561e+04  1.32e-10 8.75e-12  3.50e+00     0s
   7   5.00425956e+02 -3.49016651e+03  5.80e-12 3.87e-12  7.51e-01     0s
   8   2.23443227e+02 -8.89131055e+02  4.56e-12 3.91e-12  2.09e-01     0s
   9   1.50940484e+02 -2.29024205e+02  2.94e-12 1.38e-11  7.15e-02     0s
  10   1.14195432e+02 -6.32018300e+01  5.95e-12 1.26e-11  3.34e-02     0s
  11   8.71345957e+01  9.59628181e+00  3.13e-12 1.94e-11  1.46e-02     0s
  12   7.46466581e+01  4.01117826e+01  5.38e-12 4.67e-12  6.50e-03     0s
  13   6.63646125e+01  5.71047348e+01  2.46e-11 5.07e-12  1.74e-03     0s
  14   6.33837283e+01  6.16172489e+01  3.13e-11 5.37e-12  3.32e-04     0s
  15   6.29066705e+01  6.22659176e+01  2.89e-11 1.07e-11  1.21e-04     0s
  16   6.26771503e+01  6.25080178e+01  2.52e-11 2.46e-12  3.18e-05     0s
  17   6.26308759e+01  6.25992375e+01  4.81e-11 5.01e-12  5.95e-06     0s
  18   6.26229195e+01  6.26190503e+01  3.49e-11 6.63e-12  7.28e-07     0s
  19   6.26207708e+01  6.26202642e+01  1.84e-11 1.24e-11  9.53e-08     0s
  20   6.26204123e+01  6.26204100e+01  2.20e-11 5.15e-12  4.36e-10     0s
  21   6.26204117e+01  6.26204117e+01  1.48e-11 1.81e-11  4.36e-13     0s

Barrier solved model in 21 iterations and 0.04 seconds (0.04 work units)
Optimal objective 6.26204117e+01

Crossover log...

     344 DPushes remaining with DInf 0.0000000e+00                 0s
       0 DPushes remaining with DInf 0.0000000e+00                 0s

      99 PPushes remaining with PInf 0.0000000e+00                 0s
       0 PPushes remaining with PInf 0.0000000e+00                 0s

  Push phase complete: Pinf 0.0000000e+00, Dinf 8.9717060e-13      0s

Iteration    Objective       Primal Inf.    Dual Inf.      Time
     105    6.2620412e+01   0.000000e+00   0.000000e+00      0s

Use crossover to convert LP symmetric solution to basic solution...
Crossover log...

       0 DPushes remaining with DInf 0.0000000e+00                 0s

      75 PPushes remaining with PInf 0.0000000e+00                 0s
       0 PPushes remaining with PInf 0.0000000e+00                 0s

  Push phase complete: Pinf 0.0000000e+00, Dinf 3.7878911e-13      0s

Iteration    Objective       Primal Inf.    Dual Inf.      Time
     191    6.2620412e+01   0.000000e+00   0.000000e+00      0s

Solved in 191 iterations and 0.07 seconds (0.04 work units)
Optimal objective  6.262041169e+01
